data;

param horizon_length = 3;

param dummy = 4;

set V := 1 2 3 4;

set M[1] := 1 2;

set M[2] := 1 2;

set M[3] := 1 2;

set M[4] := 1 2;

set P := (1,2) (2,3) (1,4) (2,4) (3,4);

set R := 1 2;

param e := 1 1 2 1 3 1 4 1;

param l := 1 1 2 2 3 2 4 3;

param d : 1 2 :=
1 1 1 
2 1 1 
3 1 1 
4 0 0;

param W : 1 2 3 := 
1 3 3 3
2 3 3 3;


